NAME : prob15a.5150.tour
COMMENT : Cost = 0_5150
COMMENT : Found by LKH [Keld Helsgaun] Sun Sep 17 01:05:32 2017
TYPE : TOUR
DIMENSION : 31
TOUR_SECTION
1
26
29
17
30
20
25
21
6
31
2
14
19
27
28
4
22
7
23
11
18
24
16
3
13
15
12
5
8
10
9
-1
EOF
